c Output_time 26.03.2020 18:15:13_+0100 1585242913198121533
c ** Program information **
c program_name                          "QBRG_debug"
c version                               "0.3.20"
c date                                  "25.3.2020"
c gid_id                                "673970833836058123f633335630c185360d632e"
c author                                "Oliver Kullmann"
c url                                   "https://github.com/OKullmann/oklibrary/blob/master/Satisfiability/Transformers/Generators/Random/QBRG.cpp"
c ** Machine information **
c machine_name                          "chyna-Lenovo-G50-70"
c bogomips                              3791.08
c ** Compilation information **
c compiler_version                      "g++ 7.5.0"
c compilation_date                      "Mar_26_2020 11:16:30"
c compilation_options                   "--std=c++17 -pedantic -fmax-errors=5 -Wall -Wextra -g -D_GLIBCXX_DEBUG"
c NDEBUG                                0
c OPTIMIZE                              0
c ** Parameters **
c command-line                          "./QBRG_debug" "a40 e40 a40 40" "262*1,1|2-2,1|3-3,1|4-4,1" "" "1,t" ""
c output                                "QuBlRaGe_160_262_1585242913197968966.qdimacs"
c options                               "filtered,renamed"
c num_quantifier_blocks                 4
c  quantifier_blocks                    1:a1-40 2:e41-80 3:a81-120 4:e121-160
c num_clause-blocks                     1
c  clause-blocks                        262 * {1-40,1,1/2} | {41-80,1,1/2} | {81-120,1,1/2} | {121-160,1,1/2}
c num_e-seeds                           37+2=39
c  e-seeds                              1 0 1 0 5 160 2 40 0 40 1 40 0 40 1 262 4 1 1 1 1 2 2 2 1 1 2 3 3 1 1 2 4 4 1 1 2 1 1585242913197968332
p cnf 160 262
a 1 2 3 4 5 6 7 8 9 10 11 12 13 14 15 16 17 18 19 20 21 22 23 24 25 26 27 28 29 30 31 32 33 34 35 36 37 38 39 40 0
e 41 42 43 44 45 46 47 48 49 50 51 52 53 54 55 56 57 58 59 60 61 62 63 64 65 66 67 68 69 70 71 72 73 74 75 76 77 78 79 80 0
a 81 82 83 84 85 86 87 88 89 90 91 92 93 94 95 96 97 98 99 100 101 102 103 104 105 106 107 108 109 110 111 112 113 114 115 116 117 118 119 120 0
e 121 122 123 124 125 126 127 128 129 130 131 132 133 134 135 136 137 138 139 140 141 142 143 144 145 146 147 148 149 150 151 152 153 154 155 156 157 158 159 160 0
1 63 110 -121 0
-28 -72 -116 -121 0
4 78 -118 -121 0
-22 -50 -86 -122 0
-22 74 87 -122 0
22 45 100 -122 0
-9 -41 -120 -122 0
34 -46 86 122 0
-17 -57 -108 -123 0
-36 -76 -90 123 0
18 45 112 -124 0
-24 74 84 124 0
-13 -65 -109 124 0
2 67 88 -125 0
-33 74 -99 -125 0
6 -42 -81 125 0
11 -59 82 125 0
-35 54 -99 125 0
-5 -77 -111 125 0
5 -47 120 125 0
36 60 98 126 0
-18 -43 -107 126 0
28 80 109 126 0
4 45 82 -127 0
-27 49 -113 -127 0
-30 -78 83 127 0
28 72 108 127 0
-26 -53 81 -128 0
-31 -41 -90 -128 0
-7 79 -97 -128 0
-40 45 -91 128 0
40 -45 96 128 0
-7 -49 -81 -129 0
10 -58 83 -129 0
27 -72 89 -129 0
-34 -71 97 -129 0
-29 -80 97 -129 0
31 -53 -110 -129 0
-22 75 114 -129 0
-18 -56 119 -129 0
23 -79 90 129 0
22 -72 112 129 0
11 -45 -102 -130 0
16 -70 -111 -130 0
26 53 83 130 0
1 68 87 130 0
9 48 110 130 0
-28 56 82 -131 0
32 -44 86 -131 0
7 -66 -87 -131 0
-37 -48 91 -131 0
17 76 110 -131 0
-15 -55 100 131 0
15 -72 100 131 0
-40 -47 -101 131 0
29 79 114 131 0
7 64 85 -132 0
-14 -45 -94 -132 0
-1 -59 -99 -132 0
32 -71 -117 -132 0
25 68 -118 -132 0
30 -52 93 132 0
-24 66 96 132 0
-4 -50 -100 132 0
31 -42 116 132 0
25 -65 -117 132 0
21 76 84 -133 0
27 -41 85 -133 0
-34 50 105 -133 0
-8 -68 -107 -133 0
1 70 84 133 0
-23 65 87 133 0
-4 -50 101 133 0
38 52 94 -134 0
39 -41 -103 -134 0
-15 -80 104 -134 0
34 67 110 -134 0
-8 65 120 -134 0
-3 51 87 -135 0
-11 -42 -110 -135 0
-6 59 115 -135 0
6 -62 120 -135 0
-10 65 88 135 0
32 79 -92 135 0
-33 71 95 135 0
-39 42 -105 135 0
-18 -77 -97 -136 0
38 43 109 -136 0
3 53 118 -136 0
-13 47 90 136 0
9 55 -97 136 0
-21 65 111 136 0
13 71 82 137 0
-18 -45 -92 137 0
9 -55 104 137 0
33 -77 -90 -138 0
-28 -57 -97 -138 0
29 41 -116 -138 0
19 -51 118 -138 0
-2 43 102 138 0
-14 -64 110 138 0
6 65 -83 -139 0
-28 78 -88 -139 0
-2 -51 -91 -139 0
-11 57 118 -139 0
-38 -75 -85 139 0
22 45 -89 139 0
-17 -55 97 139 0
-12 -60 -104 139 0
39 -69 110 139 0
-17 -48 -111 139 0
-24 -56 -84 -140 0
-23 67 -102 -140 0
-5 60 -87 140 0
20 -73 -106 140 0
6 -72 114 140 0
-25 -71 -118 140 0
-36 -59 -81 -141 0
-39 -71 97 -141 0
9 53 85 141 0
-32 80 98 141 0
-3 57 -116 141 0
32 66 -93 -142 0
40 -64 -94 -142 0
-19 -55 -97 -142 0
33 47 108 -142 0
34 -62 -82 142 0
-27 65 88 142 0
-36 -77 -98 142 0
30 70 -100 142 0
-34 55 86 -143 0
23 -71 102 -143 0
-13 47 83 143 0
26 -64 -87 143 0
11 -54 -102 143 0
23 74 112 143 0
-6 71 116 143 0
26 73 -83 -144 0
-28 69 -91 -144 0
30 74 95 -144 0
-27 60 115 -144 0
-5 80 -85 144 0
14 -74 114 144 0
38 63 116 144 0
-7 63 82 -145 0
28 63 84 -145 0
-15 -75 88 -145 0
28 -71 96 -145 0
30 60 -97 -145 0
-14 47 -81 145 0
14 -77 110 145 0
6 -65 -82 -146 0
-39 -41 82 -146 0
10 45 -93 -146 0
-17 66 97 -146 0
-6 -47 106 -146 0
28 -76 118 -146 0
39 -64 -120 -146 0
-2 -55 -102 146 0
-19 43 116 146 0
17 -55 -86 -147 0
-40 61 -91 -147 0
-4 62 -95 -147 0
28 68 -100 -147 0
10 74 -115 -147 0
-18 80 -115 -147 0
-18 56 94 147 0
-40 -77 101 147 0
-39 46 102 147 0
40 59 -118 147 0
-38 47 85 -148 0
-39 42 103 -148 0
-27 -60 -104 -148 0
13 -80 114 -148 0
-21 42 95 148 0
-20 -76 -109 148 0
-38 -72 117 148 0
-4 -77 88 -149 0
-8 -47 94 -149 0
-28 78 -115 -149 0
-29 -60 83 149 0
-23 76 83 149 0
-9 51 -90 149 0
7 -42 98 149 0
40 80 98 149 0
36 59 111 149 0
-38 -41 -97 -150 0
10 -60 -116 -150 0
-12 -75 -91 150 0
-23 63 107 150 0
2 -75 -109 150 0
37 -63 -117 150 0
34 70 -83 -151 0
29 -64 -96 -151 0
-17 43 -89 151 0
-34 -41 -92 151 0
4 -42 98 151 0
31 -59 120 151 0
-10 -44 -92 -152 0
28 -68 -110 -152 0
1 71 120 -152 0
-17 -62 -97 152 0
-39 62 100 152 0
-31 44 -106 152 0
-27 -79 -111 152 0
38 -41 115 152 0
-34 -57 -83 -153 0
1 -52 -99 -153 0
5 -63 102 -153 0
29 -44 -110 -153 0
-27 -57 -114 -153 0
39 -50 105 153 0
22 72 -109 153 0
33 57 -112 153 0
-6 78 120 153 0
-16 -43 107 -154 0
25 -74 -106 154 0
-12 41 109 154 0
-22 -67 84 -155 0
32 -72 93 155 0
-3 49 -117 155 0
25 48 94 -156 0
-1 78 -111 -156 0
2 -57 113 -156 0
-10 59 -115 -156 0
-24 73 97 156 0
22 -65 -104 156 0
14 72 -108 156 0
27 -51 115 156 0
27 58 -82 -157 0
28 -52 -85 -157 0
-34 55 94 -157 0
38 -59 97 -157 0
-17 41 109 -157 0
-24 49 110 -157 0
2 -41 -111 -157 0
34 -44 -117 -157 0
-38 -44 -83 157 0
34 44 85 157 0
40 41 100 157 0
16 55 100 157 0
-15 -51 102 157 0
40 -55 -111 157 0
15 -57 -92 -158 0
-40 -64 -94 -158 0
20 -70 -108 -158 0
38 74 110 -158 0
12 -43 -120 158 0
-31 78 81 -159 0
-19 -65 100 -159 0
28 -44 107 -159 0
4 -41 -112 -159 0
15 -77 96 159 0
-3 61 100 159 0
40 -42 109 159 0
-9 -43 89 -160 0
34 58 -104 -160 0
17 -48 -114 -160 0
25 79 89 160 0
37 74 94 160 0
2 -76 -97 160 0
32 -70 105 160 0
